50, 11694
67, 169
414, 512
111, 212
753, 852
512, 613
50, 150
45, 144
736, 834
155, 253
734, 834
631, 732
505, 603
856, 956
603, 705
574, 672
401, 501
249, 351
138, 239
424, 526
377, 478
773, 874
269, 368
399, 499
947, 1047
621, 723
662, 763
688, 787
911, 1013
207, 308
771, 872
66, 164
256, 355
596, 696
319, 419
488, 587
223, 325
256, 358
438, 539
613, 715
694, 795
500, 600
380, 478
967, 1067
777, 879
548, 648
543, 644
149, 248
200, 298
85, 185
942, 1041
